
(set-logic ALL) 

(declare-datatype MyList ((Nil) (Cons (head Real) (tail MyList)) )) 
(declare-fun l0 () MyList) 
(declare-fun l1 () MyList) 
(declare-fun l2 () MyList) 
(declare-fun l3 () MyList) 
(declare-fun i0 () Real) 
(declare-fun i1 () Real) 
(assert (or (is-Nil l2) (= l2 l1) (= l2 Nil) (= l2 Nil)) )
(assert (is-Nil Nil) )
(assert (and (= l0 Nil) (= l0 l3) (= l3 Nil)) )
(assert (is-Cons Nil) )
(assert (is-Cons Nil) )
(assert (not (= l0 l1)) )
(assert (not (= l1 Nil)) )
(assert (not (= l3 Nil)) )
(check-sat)
